c 2-SAT control (sanity-only)
c Generated by mu_sat_difficulty_scale.py
p cnf 30 60
-5 -28 0
29 -7 0
-25 22 0
-15 -8 0
-15 17 0
8 28 0
-22 -21 0
-13 -10 0
5 30 0
28 15 0
-25 -1 0
5 2 0
-26 -16 0
12 1 0
-28 -4 0
27 14 0
-13 -19 0
19 1 0
10 -5 0
-29 -3 0
-14 25 0
3 -8 0
5 8 0
-12 2 0
14 -5 0
5 8 0
20 9 0
-16 -15 0
7 8 0
-2 -17 0
-16 2 0
27 13 0
6 -5 0
9 4 0
19 -14 0
-4 -26 0
-18 -19 0
9 16 0
23 -20 0
-28 21 0
14 -1 0
23 25 0
22 -16 0
19 27 0
24 -27 0
-10 -16 0
16 28 0
-17 -25 0
-13 9 0
6 -27 0
-11 8 0
17 15 0
-3 12 0
25 -23 0
-21 -27 0
-16 -17 0
-22 -26 0
23 26 0
-17 -11 0
1 22 0
